% seed = 0

mint = 44;
% maxt = 217;

nActs = 20;
dur = [0,10,15,8,14,17,13,7,15,16,9,10,15,8,19,9,7,12,13,0];

nSkills = 3;
sreq = [| 0,0,0,
	| 2,2,2,
	| 3,0,2,
	| 2,3,0,
	| 0,2,2,
	| 0,2,2,
	| 4,2,2,
	| 0,2,2,
	| 0,3,0,
	| 2,0,2,
	| 3,0,2,
	| 2,3,2,
	| 3,0,2,
	| 0,2,2,
	| 2,3,2,
	| 2,3,0,
	| 3,0,0,
	| 3,0,2,
	| 4,2,2,
	| 0,0,0, |];

% SumOfsreq = 92;

nResources = 11;
mastery = [| true,true,false,
	| true,false,false,
	| true,true,false,
	| false,true,false,
	| false,false,true,
	| false,false,true,
	| true,false,true,
	| true,true,false,
	| true,false,false,
	| true,false,false,
	| false,false,true, |];

nPrecs = 31;
pred = [1,1,1,1,1,1,1,1,1,1,2,2,3,4,5,5,6,6,7,8,9,10,11,12,13,14,15,16,17,18,19];
succ = [2,3,4,5,7,9,11,13,15,19,18,6,20,20,10,8,12,16,10,20,20,20,14,17,20,20,18,20,20,20,20];

nUnrels = 139;
unpred = [2,2,2,2,2,2,2,2,2,2,2,2,3,3,3,3,3,3,3,3,3,3,3,3,3,3,3,3,4,4,4,4,4,4,4,4,4,4,4,4,4,4,4,5,5,5,5,5,5,5,5,5,5,5,5,6,6,6,6,6,6,6,6,6,6,7,7,7,7,7,7,7,7,7,7,7,8,8,8,8,8,8,8,8,8,8,8,9,9,9,9,9,9,9,9,9,9,10,10,10,10,10,10,10,10,10,11,11,11,11,11,11,11,12,12,12,12,12,12,13,13,13,13,13,13,14,14,14,14,14,15,15,15,16,16,16,17,17,18];
unsucc = [3,4,5,7,8,9,10,11,13,14,15,19,4,5,6,7,8,9,10,11,12,13,14,15,16,17,18,19,5,6,7,8,9,10,11,12,13,14,15,16,17,18,19,6,7,9,11,12,13,14,15,16,17,18,19,7,8,9,10,11,13,14,15,18,19,8,9,11,12,13,14,15,16,17,18,19,9,10,11,12,13,14,15,16,17,18,19,10,11,12,13,14,15,16,17,18,19,11,12,13,14,15,16,17,18,19,12,13,15,16,17,18,19,13,14,15,16,18,19,14,15,16,17,18,19,15,16,17,18,19,16,17,19,17,18,19,18,19,19];

USEFUL_RES = [{},
	{1,2,3,4,5,6,7,8,9,10,11},
	{1,2,3,5,6,7,8,9,10,11},
	{1,2,3,4,7,8,9,10},
	{1,3,4,5,6,7,8,11},
	{1,3,4,5,6,7,8,11},
	{1,2,3,4,5,6,7,8,9,10,11},
	{1,3,4,5,6,7,8,11},
	{1,3,4,8},
	{1,2,3,5,6,7,8,9,10,11},
	{1,2,3,5,6,7,8,9,10,11},
	{1,2,3,4,5,6,7,8,9,10,11},
	{1,2,3,5,6,7,8,9,10,11},
	{1,3,4,5,6,7,8,11},
	{1,2,3,4,5,6,7,8,9,10,11},
	{1,2,3,4,7,8,9,10},
	{1,2,3,7,8,9,10},
	{1,2,3,5,6,7,8,9,10,11},
	{1,2,3,4,5,6,7,8,9,10,11},
	{}];

POTENTIAL_ACT = [{2,3,4,5,6,7,8,9,10,11,12,13,14,15,16,17,18,19},
	{2,3,4,7,10,11,12,13,15,16,17,18,19},
	{2,3,4,5,6,7,8,9,10,11,12,13,14,15,16,17,18,19},
	{2,4,5,6,7,8,9,12,14,15,16,19},
	{2,3,5,6,7,8,10,11,12,13,14,15,18,19},
	{2,3,5,6,7,8,10,11,12,13,14,15,18,19},
	{2,3,4,5,6,7,8,10,11,12,13,14,15,16,17,18,19},
	{2,3,4,5,6,7,8,9,10,11,12,13,14,15,16,17,18,19},
	{2,3,4,7,10,11,12,13,15,16,17,18,19},
	{2,3,4,7,10,11,12,13,15,16,17,18,19},
	{2,3,5,6,7,8,10,11,12,13,14,15,18,19}];
